NAME : rnd24_20.tsp
TYPE : TSP
DIMENSION : 20
EDGE_WEIGHT_TYPE : EUC_2D
NODE_COORD_SECTION
1 870 142
2 624 30
3 295 146
4 238 206
5 514 511
6 851 613
7 903 551
8 987 250
9 122 920
10 818 686
11 665 766
12 6 454
13 827 171
14 530 141
15 923 603
16 842 413
17 315 714
18 521 709
19 221 904
20 846 800
